(set-logic HORN)


(declare-fun |h36| ( Int Int Int Int Int Int Int Int Int Int Int Int Int Int Int Int Int Int Int Int ) Bool)
(declare-fun |h12| ( Int Int Int Int Int Int Int Int Int Int Int Int Int Int Int Int Int Int Int Int ) Bool)
(declare-fun |h40| ( Int Int Int Int Int Int Int Int Int Int Int Int Int Int Int Int Int Int Int Int ) Bool)
(declare-fun |h25| ( Int Int Int Int Int Int Int Int Int Int Int Int Int Int Int Int Int Int Int Int ) Bool)
(declare-fun |h20| ( Int Int Int Int Int Int Int Int Int Int Int Int Int Int Int Int Int Int Int Int ) Bool)
(declare-fun |h21| ( Int Int Int Int Int Int Int Int Int Int Int Int Int Int Int Int Int Int Int Int ) Bool)
(declare-fun |h4| ( Int Int Int Int Int Int Int Int Int Int Int Int Int Int Int Int Int Int Int Int ) Bool)
(declare-fun |h22| ( Int Int Int Int Int Int Int Int Int Int Int Int Int Int Int Int Int Int Int Int ) Bool)
(declare-fun |h5| ( Int Int Int Int Int Int Int Int Int Int Int Int Int Int Int Int Int Int Int Int ) Bool)
(declare-fun |h31| ( Int Int Int Int Int Int Int Int Int Int Int Int Int Int Int Int Int Int Int Int ) Bool)
(declare-fun |h28| ( Int Int Int Int Int Int Int Int Int Int Int Int Int Int Int Int Int Int Int Int ) Bool)
(declare-fun |h34| ( Int Int Int Int Int Int Int Int Int Int Int Int Int Int Int Int Int Int Int Int ) Bool)
(declare-fun |h43| ( Int Int Int Int Int Int Int Int Int Int Int Int Int Int Int Int Int Int Int Int ) Bool)
(declare-fun |h35| ( Int Int Int Int Int Int Int Int Int Int Int Int Int Int Int Int Int Int Int Int ) Bool)
(declare-fun |h33| ( Int Int Int Int Int Int Int Int Int Int Int Int Int Int Int Int Int Int Int Int ) Bool)
(declare-fun |h41| ( Int Int Int Int Int Int Int Int Int Int Int Int Int Int Int Int Int Int Int Int ) Bool)
(declare-fun |h15| ( Int Int Int Int Int Int Int Int Int Int Int Int Int Int Int Int Int Int Int Int ) Bool)
(declare-fun |h1| ( Int Int Int Int Int Int Int Int Int Int Int Int Int Int Int Int Int Int Int Int ) Bool)
(declare-fun |h19| ( Int Int Int Int Int Int Int Int Int Int Int Int Int Int Int Int Int Int Int Int ) Bool)
(declare-fun |h29| ( Int Int Int Int Int Int Int Int Int Int Int Int Int Int Int Int Int Int Int Int ) Bool)
(declare-fun |h37| ( Int Int Int Int Int Int Int Int Int Int Int Int Int Int Int Int Int Int Int Int ) Bool)
(declare-fun |h2| ( Int Int Int Int Int Int Int Int Int Int Int Int Int Int Int Int Int Int Int Int ) Bool)
(declare-fun |h11| ( Int Int Int Int Int Int Int Int Int Int Int Int Int Int Int Int Int Int Int Int ) Bool)
(declare-fun |h27| ( Int Int Int Int Int Int Int Int Int Int Int Int Int Int Int Int Int Int Int Int ) Bool)
(declare-fun |h39| ( Int Int Int Int Int Int Int Int Int Int Int Int Int Int Int Int Int Int Int Int ) Bool)
(declare-fun |h9| ( Int Int Int Int Int Int Int Int Int Int Int Int Int Int Int Int Int Int Int Int ) Bool)
(declare-fun |h24| ( Int Int Int Int Int Int Int Int Int Int Int Int Int Int Int Int Int Int Int Int ) Bool)
(declare-fun |h8| ( Int Int Int Int Int Int Int Int Int Int Int Int Int Int Int Int Int Int Int Int ) Bool)
(declare-fun |h30| ( Int Int Int Int Int Int Int Int Int Int Int Int Int Int Int Int Int Int Int Int ) Bool)
(declare-fun |h38| ( Int Int Int Int Int Int Int Int Int Int Int Int Int Int Int Int Int Int Int Int ) Bool)
(declare-fun |h42| ( Int Int Int Int Int Int Int Int Int Int Int Int Int Int Int Int Int Int Int Int ) Bool)
(declare-fun |h23| ( Int Int Int Int Int Int Int Int Int Int Int Int Int Int Int Int Int Int Int Int ) Bool)
(declare-fun |h44| ( Int Int Int Int Int Int Int Int Int Int Int Int Int Int Int Int Int Int Int Int ) Bool)
(declare-fun |h18| ( Int Int Int Int Int Int Int Int Int Int Int Int Int Int Int Int Int Int Int Int ) Bool)
(declare-fun |h14| ( Int Int Int Int Int Int Int Int Int Int Int Int Int Int Int Int Int Int Int Int ) Bool)
(declare-fun |h7| ( Int Int Int Int Int Int Int Int Int Int Int Int Int Int Int Int Int Int Int Int ) Bool)
(declare-fun |h3| ( Int Int Int Int Int Int Int Int Int Int Int Int Int Int Int Int Int Int Int Int ) Bool)
(declare-fun |h16| ( Int Int Int Int Int Int Int Int Int Int Int Int Int Int Int Int Int Int Int Int ) Bool)
(declare-fun |h32| ( Int Int Int Int Int Int Int Int Int Int Int Int Int Int Int Int Int Int Int Int ) Bool)
(declare-fun |h6| ( Int Int Int Int Int Int Int Int Int Int Int Int Int Int Int Int Int Int Int Int ) Bool)
(declare-fun |h17| ( Int Int Int Int Int Int Int Int Int Int Int Int Int Int Int Int Int Int Int Int ) Bool)
(declare-fun |h26| ( Int Int Int Int Int Int Int Int Int Int Int Int Int Int Int Int Int Int Int Int ) Bool)
(declare-fun |h13| ( Int Int Int Int Int Int Int Int Int Int Int Int Int Int Int Int Int Int Int Int ) Bool)
(declare-fun |h10| ( Int Int Int Int Int Int Int Int Int Int Int Int Int Int Int Int Int Int Int Int ) Bool)

(assert
  (forall ( (A Int) (B Int) (C Int) (D Int) (E Int) (F Int) (G Int) (H Int) (I Int) (J Int) (v_10 Int) (v_11 Int) (v_12 Int) (v_13 Int) (v_14 Int) (v_15 Int) (v_16 Int) (v_17 Int) (v_18 Int) (v_19 Int) ) 
    (=>
      (and
        (and true
     (= v_10 A)
     (= v_11 B)
     (= v_12 C)
     (= v_13 D)
     (= v_14 E)
     (= v_15 F)
     (= v_16 G)
     (= v_17 H)
     (= v_18 I)
     (= v_19 J))
      )
      (h1 A B C D E F G H I J v_10 v_11 v_12 v_13 v_14 v_15 v_16 v_17 v_18 v_19)
    )
  )
)
(assert
  (forall ( (A Int) (B Int) (C Int) (D Int) (E Int) (F Int) (G Int) (H Int) (I Int) (J Int) (K Int) (L Int) (M Int) (N Int) (O Int) (P Int) (Q Int) (R Int) (S Int) (T Int) (U Int) (V Int) (W Int) (X Int) ) 
    (=>
      (and
        (h1 A B C D E F G H I J K U V W X P Q R S T)
        (and (= M 0) (= L 0) (= O 0) (= N 0))
      )
      (h2 A B C D E F G H I J K L M N O P Q R S T)
    )
  )
)
(assert
  (forall ( (A Int) (B Int) (C Int) (D Int) (E Int) (F Int) (G Int) (H Int) (I Int) (J Int) (K Int) (L Int) (M Int) (N Int) (O Int) (P Int) (Q Int) (R Int) (S Int) (T Int) ) 
    (=>
      (and
        (h2 A B C D E F G H I J K L M N O P Q R S T)
        true
      )
      (h3 A B C D E F G H I J K L M N O P Q R S T)
    )
  )
)
(assert
  (forall ( (A Int) (B Int) (C Int) (D Int) (E Int) (F Int) (G Int) (H Int) (I Int) (J Int) (K Int) (L Int) (M Int) (N Int) (O Int) (P Int) (Q Int) (R Int) (S Int) (T Int) ) 
    (=>
      (and
        (h3 A B C D E F G H I J K L M N O P Q R S T)
        true
      )
      (h4 A B C D E F G H I J K L M N O P Q R S T)
    )
  )
)
(assert
  (forall ( (A Int) (B Int) (C Int) (D Int) (E Int) (F Int) (G Int) (H Int) (I Int) (J Int) (K Int) (L Int) (M Int) (N Int) (O Int) (P Int) (Q Int) (R Int) (S Int) (T Int) ) 
    (=>
      (and
        (h4 A B C D E F G H I J K L M N O P Q R S T)
        true
      )
      (h5 A B C D E F G H I J K L M N O P Q R S T)
    )
  )
)
(assert
  (forall ( (A Int) (B Int) (C Int) (D Int) (E Int) (F Int) (G Int) (H Int) (I Int) (J Int) (K Int) (L Int) (M Int) (N Int) (O Int) (P Int) (Q Int) (R Int) (S Int) (T Int) ) 
    (=>
      (and
        (h19 A B C D E F G H I J K L M N O P Q R S T)
        true
      )
      (h5 A B C D E F G H I J K L M N O P Q R S T)
    )
  )
)
(assert
  (forall ( (A Int) (B Int) (C Int) (D Int) (E Int) (F Int) (G Int) (H Int) (I Int) (J Int) (K Int) (L Int) (M Int) (N Int) (O Int) (P Int) (Q Int) (R Int) (S Int) (T Int) ) 
    (=>
      (and
        (h17 A B C D E F G H I J K L M N O P Q R S T)
        true
      )
      (h5 A B C D E F G H I J K L M N O P Q R S T)
    )
  )
)
(assert
  (forall ( (A Int) (B Int) (C Int) (D Int) (E Int) (F Int) (G Int) (H Int) (I Int) (J Int) (K Int) (L Int) (M Int) (N Int) (O Int) (P Int) (Q Int) (R Int) (S Int) (T Int) ) 
    (=>
      (and
        (h5 A B C D E F G H I J K L M N O P Q R S T)
        true
      )
      (h6 A B C D E F G H I J K L M N O P Q R S T)
    )
  )
)
(assert
  (forall ( (A Int) (B Int) (C Int) (D Int) (E Int) (F Int) (G Int) (H Int) (I Int) (J Int) (K Int) (L Int) (M Int) (N Int) (O Int) (P Int) (Q Int) (R Int) (S Int) (T Int) ) 
    (=>
      (and
        (h6 A B C D E F G H I J K L M N O P Q R S T)
        true
      )
      (h7 A B C D E F G H I J K L M N O P Q R S T)
    )
  )
)
(assert
  (forall ( (A Int) (B Int) (C Int) (D Int) (E Int) (F Int) (G Int) (H Int) (I Int) (J Int) (K Int) (L Int) (M Int) (N Int) (O Int) (P Int) (Q Int) (R Int) (S Int) (T Int) ) 
    (=>
      (and
        (h7 A B C D E F G H I J K L M N O P Q R S T)
        true
      )
      (h8 A B C D E F G H I J K L M N O P Q R S T)
    )
  )
)
(assert
  (forall ( (A Int) (B Int) (C Int) (D Int) (E Int) (F Int) (G Int) (H Int) (I Int) (J Int) (K Int) (L Int) (M Int) (N Int) (O Int) (P Int) (Q Int) (R Int) (S Int) (T Int) ) 
    (=>
      (and
        (h8 A B C D E F G H I J K L M N O P Q R S T)
        (<= P (- 1))
      )
      (h9 A B C D E F G H I J K L M N O P Q R S T)
    )
  )
)
(assert
  (forall ( (A Int) (B Int) (C Int) (D Int) (E Int) (F Int) (G Int) (H Int) (I Int) (J Int) (K Int) (L Int) (M Int) (N Int) (O Int) (P Int) (Q Int) (R Int) (S Int) (T Int) (U Int) (V Int) (W Int) (X Int) ) 
    (=>
      (and
        (h9 A B C D E F G H I J K X V U W P Q R S T)
        (and (= W (+ (- 1) O))
     (= V (+ M (* (- 1) N)))
     (= U (+ (- 1) N))
     (= X (+ L (* (- 1) O))))
      )
      (h10 A B C D E F G H I J K L M N O P Q R S T)
    )
  )
)
(assert
  (forall ( (A Int) (B Int) (C Int) (D Int) (E Int) (F Int) (G Int) (H Int) (I Int) (J Int) (K Int) (L Int) (M Int) (N Int) (O Int) (P Int) (Q Int) (R Int) (S Int) (T Int) (U Int) (V Int) (W Int) (X Int) ) 
    (=>
      (and
        (h11 A B C D E F G H I J K X V U W P Q R S T)
        (and (= W (+ (- 1) O))
     (= V (+ M (* (- 1) N)))
     (= U (+ (- 1) N))
     (= X (+ L (* (- 1) O))))
      )
      (h10 A B C D E F G H I J K L M N O P Q R S T)
    )
  )
)
(assert
  (forall ( (A Int) (B Int) (C Int) (D Int) (E Int) (F Int) (G Int) (H Int) (I Int) (J Int) (K Int) (L Int) (M Int) (N Int) (O Int) (P Int) (Q Int) (R Int) (S Int) (T Int) ) 
    (=>
      (and
        (h8 A B C D E F G H I J K L M N O P Q R S T)
        (>= P 1)
      )
      (h11 A B C D E F G H I J K L M N O P Q R S T)
    )
  )
)
(assert
  (forall ( (A Int) (B Int) (C Int) (D Int) (E Int) (F Int) (G Int) (H Int) (I Int) (J Int) (K Int) (L Int) (M Int) (N Int) (O Int) (P Int) (Q Int) (R Int) (S Int) (T Int) ) 
    (=>
      (and
        (h8 A B C D E F G H I J K L M N O P Q R S T)
        (= P 0)
      )
      (h12 A B C D E F G H I J K L M N O P Q R S T)
    )
  )
)
(assert
  (forall ( (A Int) (B Int) (C Int) (D Int) (E Int) (F Int) (G Int) (H Int) (I Int) (J Int) (K Int) (L Int) (M Int) (N Int) (O Int) (P Int) (Q Int) (R Int) (S Int) (T Int) ) 
    (=>
      (and
        (h12 A B C D E F G H I J K L M N O P Q R S T)
        true
      )
      (h13 A B C D E F G H I J K L M N O P Q R S T)
    )
  )
)
(assert
  (forall ( (A Int) (B Int) (C Int) (D Int) (E Int) (F Int) (G Int) (H Int) (I Int) (J Int) (K Int) (L Int) (M Int) (N Int) (O Int) (P Int) (Q Int) (R Int) (S Int) (T Int) ) 
    (=>
      (and
        (h13 A B C D E F G H I J K L M N O P Q R S T)
        true
      )
      (h14 A B C D E F G H I J K L M N O P Q R S T)
    )
  )
)
(assert
  (forall ( (A Int) (B Int) (C Int) (D Int) (E Int) (F Int) (G Int) (H Int) (I Int) (J Int) (K Int) (L Int) (M Int) (N Int) (O Int) (P Int) (Q Int) (R Int) (S Int) (T Int) ) 
    (=>
      (and
        (h10 A B C D E F G H I J K L M N O P Q R S T)
        true
      )
      (h15 A B C D E F G H I J K L M N O P Q R S T)
    )
  )
)
(assert
  (forall ( (A Int) (B Int) (C Int) (D Int) (E Int) (F Int) (G Int) (H Int) (I Int) (J Int) (K Int) (L Int) (M Int) (N Int) (O Int) (P Int) (Q Int) (R Int) (S Int) (T Int) ) 
    (=>
      (and
        (h15 A B C D E F G H I J K L M N O P Q R S T)
        (<= K (- 1))
      )
      (h16 A B C D E F G H I J K L M N O P Q R S T)
    )
  )
)
(assert
  (forall ( (A Int) (B Int) (C Int) (D Int) (E Int) (F Int) (G Int) (H Int) (I Int) (J Int) (K Int) (L Int) (M Int) (N Int) (O Int) (P Int) (Q Int) (R Int) (S Int) (T Int) (U Int) ) 
    (=>
      (and
        (h16 A B C D E F G H I J K U M N O P Q R S T)
        (= U (+ (* (- 1) N) L))
      )
      (h17 A B C D E F G H I J K L M N O P Q R S T)
    )
  )
)
(assert
  (forall ( (A Int) (B Int) (C Int) (D Int) (E Int) (F Int) (G Int) (H Int) (I Int) (J Int) (K Int) (L Int) (M Int) (N Int) (O Int) (P Int) (Q Int) (R Int) (S Int) (T Int) (U Int) ) 
    (=>
      (and
        (h18 A B C D E F G H I J K U M N O P Q R S T)
        (= U (+ (* (- 1) N) L))
      )
      (h17 A B C D E F G H I J K L M N O P Q R S T)
    )
  )
)
(assert
  (forall ( (A Int) (B Int) (C Int) (D Int) (E Int) (F Int) (G Int) (H Int) (I Int) (J Int) (K Int) (L Int) (M Int) (N Int) (O Int) (P Int) (Q Int) (R Int) (S Int) (T Int) ) 
    (=>
      (and
        (h15 A B C D E F G H I J K L M N O P Q R S T)
        (>= K 1)
      )
      (h18 A B C D E F G H I J K L M N O P Q R S T)
    )
  )
)
(assert
  (forall ( (A Int) (B Int) (C Int) (D Int) (E Int) (F Int) (G Int) (H Int) (I Int) (J Int) (K Int) (L Int) (M Int) (N Int) (O Int) (P Int) (Q Int) (R Int) (S Int) (T Int) ) 
    (=>
      (and
        (h15 A B C D E F G H I J K L M N O P Q R S T)
        (= K 0)
      )
      (h19 A B C D E F G H I J K L M N O P Q R S T)
    )
  )
)
(assert
  (forall ( (A Int) (B Int) (C Int) (D Int) (E Int) (F Int) (G Int) (H Int) (I Int) (J Int) (K Int) (L Int) (M Int) (N Int) (O Int) (P Int) (Q Int) (R Int) (S Int) (T Int) (U Int) ) 
    (=>
      (and
        (h14 A B C D E F G H I J K L M N O P U R S T)
        (= Q 1)
      )
      (h20 A B C D E F G H I J K L M N O P Q R S T)
    )
  )
)
(assert
  (forall ( (A Int) (B Int) (C Int) (D Int) (E Int) (F Int) (G Int) (H Int) (I Int) (J Int) (K Int) (L Int) (M Int) (N Int) (O Int) (P Int) (Q Int) (R Int) (S Int) (T Int) ) 
    (=>
      (and
        (h20 A B C D E F G H I J K L M N O P Q R S T)
        true
      )
      (h21 A B C D E F G H I J K L M N O P Q R S T)
    )
  )
)
(assert
  (forall ( (A Int) (B Int) (C Int) (D Int) (E Int) (F Int) (G Int) (H Int) (I Int) (J Int) (K Int) (L Int) (M Int) (N Int) (O Int) (P Int) (Q Int) (R Int) (S Int) (T Int) ) 
    (=>
      (and
        (h21 A B C D E F G H I J K L M N O P Q R S T)
        (<= K (- 1))
      )
      (h22 A B C D E F G H I J K L M N O P Q R S T)
    )
  )
)
(assert
  (forall ( (A Int) (B Int) (C Int) (D Int) (E Int) (F Int) (G Int) (H Int) (I Int) (J Int) (K Int) (L Int) (M Int) (N Int) (O Int) (P Int) (Q Int) (R Int) (S Int) (T Int) (U Int) ) 
    (=>
      (and
        (h22 A B C D E F G H I J K L M N O P U R S T)
        (= L (+ (- 2) (* 2 M) Q))
      )
      (h23 A B C D E F G H I J K L M N O P Q R S T)
    )
  )
)
(assert
  (forall ( (A Int) (B Int) (C Int) (D Int) (E Int) (F Int) (G Int) (H Int) (I Int) (J Int) (K Int) (L Int) (M Int) (N Int) (O Int) (P Int) (Q Int) (R Int) (S Int) (T Int) (U Int) ) 
    (=>
      (and
        (h24 A B C D E F G H I J K L M N O P U R S T)
        (= L (+ (- 2) (* 2 M) Q))
      )
      (h23 A B C D E F G H I J K L M N O P Q R S T)
    )
  )
)
(assert
  (forall ( (A Int) (B Int) (C Int) (D Int) (E Int) (F Int) (G Int) (H Int) (I Int) (J Int) (K Int) (L Int) (M Int) (N Int) (O Int) (P Int) (Q Int) (R Int) (S Int) (T Int) ) 
    (=>
      (and
        (h21 A B C D E F G H I J K L M N O P Q R S T)
        (>= K 1)
      )
      (h24 A B C D E F G H I J K L M N O P Q R S T)
    )
  )
)
(assert
  (forall ( (A Int) (B Int) (C Int) (D Int) (E Int) (F Int) (G Int) (H Int) (I Int) (J Int) (K Int) (L Int) (M Int) (N Int) (O Int) (P Int) (Q Int) (R Int) (S Int) (T Int) ) 
    (=>
      (and
        (h21 A B C D E F G H I J K L M N O P Q R S T)
        (= K 0)
      )
      (h25 A B C D E F G H I J K L M N O P Q R S T)
    )
  )
)
(assert
  (forall ( (A Int) (B Int) (C Int) (D Int) (E Int) (F Int) (G Int) (H Int) (I Int) (J Int) (K Int) (L Int) (M Int) (N Int) (O Int) (P Int) (Q Int) (R Int) (S Int) (T Int) (U Int) ) 
    (=>
      (and
        (h25 A B C D E F G H I J K L M N O P Q U S T)
        (= R 0)
      )
      (h26 A B C D E F G H I J K L M N O P Q R S T)
    )
  )
)
(assert
  (forall ( (A Int) (B Int) (C Int) (D Int) (E Int) (F Int) (G Int) (H Int) (I Int) (J Int) (K Int) (L Int) (M Int) (N Int) (O Int) (P Int) (Q Int) (R Int) (S Int) (T Int) (U Int) ) 
    (=>
      (and
        (h23 A B C D E F G H I J K L M N O P Q U S T)
        (= R 0)
      )
      (h26 A B C D E F G H I J K L M N O P Q R S T)
    )
  )
)
(assert
  (forall ( (A Int) (B Int) (C Int) (D Int) (E Int) (F Int) (G Int) (H Int) (I Int) (J Int) (K Int) (L Int) (M Int) (N Int) (O Int) (P Int) (Q Int) (R Int) (S Int) (T Int) ) 
    (=>
      (and
        (h26 A B C D E F G H I J K L M N O P Q R S T)
        true
      )
      (h27 A B C D E F G H I J K L M N O P Q R S T)
    )
  )
)
(assert
  (forall ( (A Int) (B Int) (C Int) (D Int) (E Int) (F Int) (G Int) (H Int) (I Int) (J Int) (K Int) (L Int) (M Int) (N Int) (O Int) (P Int) (Q Int) (R Int) (S Int) (T Int) ) 
    (=>
      (and
        (h27 A B C D E F G H I J K L M N O P Q R S T)
        true
      )
      (h28 A B C D E F G H I J K L M N O P Q R S T)
    )
  )
)
(assert
  (forall ( (A Int) (B Int) (C Int) (D Int) (E Int) (F Int) (G Int) (H Int) (I Int) (J Int) (K Int) (L Int) (M Int) (N Int) (O Int) (P Int) (Q Int) (R Int) (S Int) (T Int) ) 
    (=>
      (and
        (h28 A B C D E F G H I J K L M N O P Q R S T)
        true
      )
      (h29 A B C D E F G H I J K L M N O P Q R S T)
    )
  )
)
(assert
  (forall ( (A Int) (B Int) (C Int) (D Int) (E Int) (F Int) (G Int) (H Int) (I Int) (J Int) (K Int) (L Int) (M Int) (N Int) (O Int) (P Int) (Q Int) (R Int) (S Int) (T Int) ) 
    (=>
      (and
        (h39 A B C D E F G H I J K L M N O P Q R S T)
        true
      )
      (h29 A B C D E F G H I J K L M N O P Q R S T)
    )
  )
)
(assert
  (forall ( (A Int) (B Int) (C Int) (D Int) (E Int) (F Int) (G Int) (H Int) (I Int) (J Int) (K Int) (L Int) (M Int) (N Int) (O Int) (P Int) (Q Int) (R Int) (S Int) (T Int) ) 
    (=>
      (and
        (h42 A B C D E F G H I J K L M N O P Q R S T)
        true
      )
      (h29 A B C D E F G H I J K L M N O P Q R S T)
    )
  )
)
(assert
  (forall ( (A Int) (B Int) (C Int) (D Int) (E Int) (F Int) (G Int) (H Int) (I Int) (J Int) (K Int) (L Int) (M Int) (N Int) (O Int) (P Int) (Q Int) (R Int) (S Int) (T Int) ) 
    (=>
      (and
        (h29 A B C D E F G H I J K L M N O P Q R S T)
        true
      )
      (h30 A B C D E F G H I J K L M N O P Q R S T)
    )
  )
)
(assert
  (forall ( (A Int) (B Int) (C Int) (D Int) (E Int) (F Int) (G Int) (H Int) (I Int) (J Int) (K Int) (L Int) (M Int) (N Int) (O Int) (P Int) (Q Int) (R Int) (S Int) (T Int) ) 
    (=>
      (and
        (h30 A B C D E F G H I J K L M N O P Q R S T)
        (>= (+ Q (* (- 1) R)) 0)
      )
      (h31 A B C D E F G H I J K L M N O P Q R S T)
    )
  )
)
(assert
  (forall ( (A Int) (B Int) (C Int) (D Int) (E Int) (F Int) (G Int) (H Int) (I Int) (J Int) (K Int) (L Int) (M Int) (N Int) (O Int) (P Int) (Q Int) (R Int) (S Int) (T Int) ) 
    (=>
      (and
        (h31 A B C D E F G H I J K L M N O P Q R S T)
        true
      )
      (h32 A B C D E F G H I J K L M N O P Q R S T)
    )
  )
)
(assert
  (forall ( (A Int) (B Int) (C Int) (D Int) (E Int) (F Int) (G Int) (H Int) (I Int) (J Int) (K Int) (L Int) (M Int) (N Int) (O Int) (P Int) (Q Int) (R Int) (S Int) (T Int) ) 
    (=>
      (and
        (h30 A B C D E F G H I J K L M N O P Q R S T)
        (<= (+ Q (* (- 1) R)) (- 1))
      )
      (h33 A B C D E F G H I J K L M N O P Q R S T)
    )
  )
)
(assert
  (forall ( (A Int) (B Int) (C Int) (D Int) (E Int) (F Int) (G Int) (H Int) (I Int) (J Int) (K Int) (L Int) (M Int) (N Int) (O Int) (P Int) (Q Int) (R Int) (S Int) (T Int) ) 
    (=>
      (and
        (h33 A B C D E F G H I J K L M N O P Q R S T)
        true
      )
      (h34 A B C D E F G H I J K L M N O P Q R S T)
    )
  )
)
(assert
  (forall ( (A Int) (B Int) (C Int) (D Int) (E Int) (F Int) (G Int) (H Int) (I Int) (J Int) (K Int) (L Int) (M Int) (N Int) (O Int) (P Int) (Q Int) (R Int) (S Int) (T Int) ) 
    (=>
      (and
        (h34 A B C D E F G H I J K L M N O P Q R S T)
        true
      )
      (h35 A B C D E F G H I J K L M N O P Q R S T)
    )
  )
)
(assert
  (forall ( (A Int) (B Int) (C Int) (D Int) (E Int) (F Int) (G Int) (H Int) (I Int) (J Int) (K Int) (L Int) (M Int) (N Int) (O Int) (P Int) (Q Int) (R Int) (S Int) (T Int) ) 
    (=>
      (and
        (h32 A B C D E F G H I J K L M N O P Q R S T)
        true
      )
      (h36 A B C D E F G H I J K L M N O P Q R S T)
    )
  )
)
(assert
  (forall ( (A Int) (B Int) (C Int) (D Int) (E Int) (F Int) (G Int) (H Int) (I Int) (J Int) (K Int) (L Int) (M Int) (N Int) (O Int) (P Int) (Q Int) (R Int) (S Int) (T Int) ) 
    (=>
      (and
        (h36 A B C D E F G H I J K L M N O P Q R S T)
        true
      )
      (h37 A B C D E F G H I J K L M N O P Q R S T)
    )
  )
)
(assert
  (forall ( (A Int) (B Int) (C Int) (D Int) (E Int) (F Int) (G Int) (H Int) (I Int) (J Int) (K Int) (L Int) (M Int) (N Int) (O Int) (P Int) (Q Int) (R Int) (S Int) (T Int) ) 
    (=>
      (and
        (h37 A B C D E F G H I J K L M N O P Q R S T)
        (<= S (- 1))
      )
      (h38 A B C D E F G H I J K L M N O P Q R S T)
    )
  )
)
(assert
  (forall ( (A Int) (B Int) (C Int) (D Int) (E Int) (F Int) (G Int) (H Int) (I Int) (J Int) (K Int) (L Int) (M Int) (N Int) (O Int) (P Int) (Q Int) (R Int) (S Int) (T Int) (U Int) ) 
    (=>
      (and
        (h38 A B C D E F G H I J K L M N O P Q U S T)
        (= U (+ (- 1) R))
      )
      (h39 A B C D E F G H I J K L M N O P Q R S T)
    )
  )
)
(assert
  (forall ( (A Int) (B Int) (C Int) (D Int) (E Int) (F Int) (G Int) (H Int) (I Int) (J Int) (K Int) (L Int) (M Int) (N Int) (O Int) (P Int) (Q Int) (R Int) (S Int) (T Int) (U Int) ) 
    (=>
      (and
        (h40 A B C D E F G H I J K L M N O P Q U S T)
        (= U (+ (- 1) R))
      )
      (h39 A B C D E F G H I J K L M N O P Q R S T)
    )
  )
)
(assert
  (forall ( (A Int) (B Int) (C Int) (D Int) (E Int) (F Int) (G Int) (H Int) (I Int) (J Int) (K Int) (L Int) (M Int) (N Int) (O Int) (P Int) (Q Int) (R Int) (S Int) (T Int) ) 
    (=>
      (and
        (h37 A B C D E F G H I J K L M N O P Q R S T)
        (>= S 1)
      )
      (h40 A B C D E F G H I J K L M N O P Q R S T)
    )
  )
)
(assert
  (forall ( (A Int) (B Int) (C Int) (D Int) (E Int) (F Int) (G Int) (H Int) (I Int) (J Int) (K Int) (L Int) (M Int) (N Int) (O Int) (P Int) (Q Int) (R Int) (S Int) (T Int) ) 
    (=>
      (and
        (h37 A B C D E F G H I J K L M N O P Q R S T)
        (= S 0)
      )
      (h41 A B C D E F G H I J K L M N O P Q R S T)
    )
  )
)
(assert
  (forall ( (A Int) (B Int) (C Int) (D Int) (E Int) (F Int) (G Int) (H Int) (I Int) (J Int) (K Int) (L Int) (M Int) (N Int) (O Int) (P Int) (Q Int) (R Int) (S Int) (T Int) (U Int) ) 
    (=>
      (and
        (h41 A B C D E F G H I J K L M N O P Q U S T)
        (= U (+ (- 2) R))
      )
      (h42 A B C D E F G H I J K L M N O P Q R S T)
    )
  )
)
(assert
  (forall ( (A Int) (B Int) (C Int) (D Int) (E Int) (F Int) (G Int) (H Int) (I Int) (J Int) (K Int) (L Int) (M Int) (N Int) (O Int) (P Int) (Q Int) (R Int) (S Int) (T Int) ) 
    (=>
      (and
        (h35 A B C D E F G H I J K L M N O P Q R S T)
        true
      )
      (h43 A B C D E F G H I J K L M N O P Q R S T)
    )
  )
)
(assert
  (forall ( (A Int) (B Int) (C Int) (D Int) (E Int) (F Int) (G Int) (H Int) (I Int) (J Int) (K Int) (L Int) (M Int) (N Int) (O Int) (P Int) (Q Int) (R Int) (S Int) (T Int) ) 
    (=>
      (and
        (h43 A B C D E F G H I J K L M N O P Q R S T)
        (>= R 5)
      )
      (h44 A B C D E F G H I J K L M N O P Q R S T)
    )
  )
)
(assert
  (forall ( (A Int) (B Int) (C Int) (D Int) (E Int) (F Int) (G Int) (H Int) (I Int) (J Int) (K Int) (L Int) (M Int) (N Int) (O Int) (P Int) (Q Int) (R Int) (S Int) (T Int) ) 
    (=>
      (and
        (h44 A B C D E F G H I J K L M N O P Q R S T)
        true
      )
      false
    )
  )
)

(check-sat)
(exit)
